c preprocessed version of dimacs_mulsol.i.4-pp, 56 vertices, 965 edges
p td 56 965
0 1
0 9
0 8
0 7
0 6
0 5
0 4
0 3
48 0
2 1
3 1
4 1
5 1
6 1
7 1
8 1
9 1
1 10
1 11
1 12
1 13
1 14
1 15
1 16
1 18
1 20
1 49
1 23
1 22
1 24
1 29
1 28
1 31
1 33
1 30
1 35
1 27
1 32
1 34
1 37
1 39
1 40
1 36
1 38
1 26
1 21
1 19
1 17
1 42
1 45
1 47
1 46
1 44
1 43
25 1
41 1
2 3
2 4
2 5
2 6
2 7
2 8
2 9
2 10
2 11
2 12
2 13
2 14
2 15
2 16
2 18
2 20
2 49
2 23
2 22
2 24
2 29
2 28
2 31
2 33
2 30
2 35
2 27
2 32
2 34
2 37
2 39
2 40
2 36
2 38
2 26
2 21
2 19
2 17
2 42
2 45
2 47
2 46
2 44
2 43
41 2
3 4
3 5
3 6
3 7
3 8
3 9
3 10
3 11
3 12
3 13
3 14
3 15
3 16
3 18
3 20
3 49
3 23
3 22
3 24
3 29
3 28
3 31
3 33
3 30
3 35
3 27
3 32
3 34
3 37
3 39
3 40
3 36
3 38
3 26
3 21
3 19
3 17
3 42
3 45
3 47
3 46
3 44
3 43
41 3
4 5
4 6
4 7
4 8
4 9
4 10
4 11
4 12
4 13
4 14
4 15
4 16
4 18
4 20
4 49
4 23
4 22
4 24
4 29
4 28
4 31
4 33
4 30
4 35
4 27
4 32
4 34
4 37
4 39
4 40
4 36
4 38
4 26
4 21
4 19
4 17
4 42
4 45
4 47
4 46
4 44
4 43
25 4
41 4
5 6
5 7
5 8
5 9
5 10
5 11
5 12
5 13
5 14
5 15
5 16
5 18
5 20
5 49
5 23
5 22
5 24
5 29
5 28
5 31
5 33
5 30
5 35
5 27
5 32
5 34
5 37
5 39
5 40
5 36
5 38
5 26
5 21
5 19
5 17
5 42
5 45
5 47
5 46
5 44
5 43
25 5
41 5
6 7
6 8
6 9
6 10
6 11
6 12
6 13
6 14
6 15
6 16
6 18
6 20
6 49
6 23
6 22
6 24
6 29
6 28
6 31
6 33
6 30
6 35
6 27
6 32
6 34
6 37
6 39
6 40
6 36
6 38
6 26
6 21
6 19
6 17
6 42
6 45
6 47
6 46
6 44
6 43
25 6
41 6
7 8
7 9
7 10
7 11
7 12
7 13
7 14
7 15
7 16
7 18
7 20
7 49
7 23
7 22
7 24
7 29
7 28
7 31
7 33
7 30
7 35
7 27
7 32
7 34
7 37
7 39
7 40
7 36
7 38
7 26
7 21
7 19
7 17
7 42
7 45
7 47
7 46
7 44
7 43
25 7
41 7
8 9
8 10
8 11
8 12
8 13
8 14
8 15
8 16
8 18
8 20
8 49
8 23
8 22
8 24
8 29
8 28
8 31
8 33
8 30
8 35
8 27
8 32
8 34
8 37
8 39
8 40
8 36
8 38
8 26
8 21
8 19
8 17
8 42
8 45
8 47
8 46
8 44
8 43
25 8
41 8
9 10
9 11
9 12
9 13
9 14
9 15
9 16
9 18
9 20
9 49
9 23
9 22
9 24
9 29
9 28
9 31
9 33
9 30
9 35
9 27
9 32
9 34
9 37
9 39
9 40
9 36
9 38
9 26
9 21
9 19
9 17
9 42
9 45
9 47
9 46
9 44
9 43
25 9
41 9
10 11
10 12
10 13
10 14
10 15
10 16
10 18
10 20
10 49
10 23
10 22
10 24
10 29
10 28
10 31
10 33
10 30
10 35
10 27
10 32
10 34
10 37
10 39
10 40
10 36
10 38
10 26
10 21
10 19
10 17
10 42
10 47
10 46
10 44
10 43
41 10
11 12
11 13
11 14
11 15
11 16
11 18
11 20
11 49
11 23
11 22
11 24
11 29
11 28
11 31
11 33
11 30
11 35
11 27
11 32
11 34
11 37
11 39
11 40
11 36
11 38
11 26
11 21
11 19
11 17
11 42
11 47
11 46
11 44
11 43
41 11
12 13
12 14
12 15
12 16
12 18
12 20
12 49
12 23
12 22
12 24
12 29
12 28
12 31
12 33
12 30
12 35
12 27
12 32
12 34
12 37
12 39
12 40
12 36
12 38
12 26
12 21
12 19
12 17
12 42
12 47
12 46
12 44
12 43
41 12
13 14
13 15
13 16
13 18
13 20
13 49
13 23
13 22
13 24
13 29
13 28
13 31
13 33
13 30
13 35
13 27
13 32
13 34
13 37
13 39
13 40
13 36
13 38
13 26
13 21
13 19
13 17
13 42
13 47
13 46
13 44
13 43
41 13
14 15
14 16
14 18
14 20
14 49
14 23
14 22
14 24
14 29
14 28
14 31
14 33
14 30
14 35
14 27
14 32
14 34
14 37
14 39
14 40
14 36
14 38
14 26
14 21
14 19
14 17
14 42
14 47
14 46
14 44
14 43
41 14
15 16
15 18
15 20
15 49
15 23
15 22
15 24
15 29
15 28
15 31
15 33
15 30
15 35
15 27
15 32
15 34
15 37
15 39
15 40
15 36
15 38
15 26
15 21
15 19
15 17
15 42
15 47
15 46
15 44
15 43
41 15
16 17
16 19
16 21
16 26
16 38
16 36
16 37
16 34
16 27
16 22
25 16
41 16
18 17
20 17
22 17
27 17
34 17
37 17
36 17
38 17
26 17
21 17
19 17
17 42
17 43
25 17
41 17
18 19
18 21
18 26
18 38
18 36
18 37
18 34
18 27
18 22
25 18
41 18
20 19
22 19
27 19
34 19
37 19
40 19
36 19
38 19
26 19
21 19
19 42
19 43
25 19
41 19
20 21
20 26
20 38
20 36
20 37
20 34
20 27
20 22
25 20
41 20
22 21
27 21
34 21
37 21
40 21
36 21
38 21
26 21
21 42
21 43
25 21
41 21
23 22
22 26
22 38
22 36
22 40
22 39
22 37
22 34
22 32
22 27
22 35
22 30
22 33
22 31
22 28
22 29
22 24
22 42
22 43
22 44
22 46
25 22
41 22
23 24
25 23
41 23
25 24
41 24
25 26
25 27
25 28
25 29
25 30
25 31
25 32
25 33
25 34
25 35
25 36
25 37
25 38
25 39
25 40
25 42
25 43
25 44
25 45
25 46
25 47
25 49
25 48
25 41
27 26
34 26
37 26
39 26
40 26
36 26
38 26
26 42
26 43
41 26
28 27
31 27
33 27
30 27
35 27
27 38
27 36
27 40
27 39
27 37
27 34
27 32
27 42
27 43
27 44
41 27
29 28
28 35
28 30
28 33
28 31
41 28
29 30
29 33
29 31
41 29
31 30
33 30
30 39
30 37
30 34
30 32
30 35
41 30
31 32
31 35
31 33
41 31
33 32
35 32
32 37
32 34
41 32
33 34
33 35
41 33
35 34
34 38
34 36
34 40
34 39
34 37
34 42
34 43
34 44
41 34
35 36
35 40
35 39
35 37
41 35
37 36
39 36
40 36
36 38
36 42
36 43
41 36
37 38
37 40
37 39
37 42
37 43
37 44
41 37
39 38
40 38
38 42
38 43
41 38
39 40
41 39
41 40
41 42
41 43
41 44
41 46
48 41
44 43
45 44
47 44
46 44
45 46
45 47
47 46
50 25
50 48
50 51
50 0
50 41
50 3
50 52
50 54
50 4
50 53
50 5
50 6
50 7
50 8
50 9
50 1
50 16
50 17
50 18
50 19
50 20
50 21
50 22
50 23
50 24
50 26
50 27
50 28
50 29
50 30
50 31
50 32
50 33
50 34
50 35
50 36
50 37
50 38
50 39
50 40
50 42
50 43
50 44
50 45
50 46
50 47
50 49
50 55
51 0
51 52
51 53
51 54
51 1
51 9
51 8
51 7
51 6
51 5
51 4
51 3
51 55
51 48
52 55
52 1
52 3
52 4
52 5
52 6
52 7
52 8
52 9
52 53
52 54
53 55
53 1
53 3
53 4
53 5
53 6
53 7
53 8
53 9
53 54
54 55
54 1
54 3
54 4
54 5
54 6
54 7
54 8
54 9
55 1
55 2
55 3
55 4
55 5
55 6
55 7
55 8
55 9
55 10
55 11
55 12
55 13
55 14
55 15
55 16
55 17
55 18
55 19
55 20
55 21
55 22
55 23
55 24
55 26
55 27
55 28
55 29
55 30
55 31
55 32
55 33
55 34
55 35
55 36
55 37
55 38
55 39
55 40
55 41
55 42
55 43
55 44
55 45
55 46
55 47
55 49
